Problem:    
Rows:       195
Columns:    69 (54 integer, 54 binary)
Non-zeros:  604
Status:     INTEGER OPTIMAL
Objective:  value = 6.083434 (MINimum)

   No.   Row name        Activity     Lower bound   Upper bound
------ ------------    ------------- ------------- -------------
     1 r.5                   6.08343             0               
     2 r.6                   -997.48       -997.94               
     3 r.7                   1006.08             0               
     4 r.8                  -993.917      -996.398               
     5 r.9                   1006.08             0               
     6 r.10                 -995.384      -998.601               
     7 r.11                  6.08343             0               
     8 r.12                 -996.578      -997.038               
     9 r.13                  1006.08             0               
    10 r.14                 -996.783      -998.694               
    11 r.15                  6.08343             0               
    12 r.16                  4.61612      -997.922               
    13 r.17                  6.08343             0               
    14 r.18                  1.91108      -999.329               
    15 r.19                  1006.08             0               
    16 r.20                 -998.089      -998.605               
    17 r.21                  1006.08             0               
    18 r.22                 -998.089      -998.549               
    19 r.23                  6.08343             0               
    20 r.24                  4.61612      -997.712               
    21 r.25                  1006.08             0               
    22 r.26                  -999.54       -999.54               
    23 r.27                  6.08343             0               
    24 r.28                 0.459778      -998.149               
    25 r.29                  1006.08             0               
    26 r.30                 -993.917      -998.533               
    27 r.31                  6.08343             0               
    28 r.32                  6.08343      -997.697               
    29 r.33                        1             1             = 
    30 r.34                        1             1             = 
    31 r.35                        1             1             = 
    32 r.36                        1             1             = 
    33 r.37                        1             1             = 
    34 r.38                        1             1             = 
    35 r.39                        1             1             = 
    36 r.40                     1001             2               
    37 r.41                    -1001         -1001               
    38 r.42                   3002.1      -998.601               
    39 r.43                     1001             2               
    40 r.44                    -1001         -1001               
    41 r.45                  997.338      -997.038               
    42 r.46                     1001             2               
    43 r.47                    -1001         -1001               
    44 r.48                   3000.7      -998.694               
    45 r.49                     1001             2               
    46 r.50                    -1001         -1001               
    47 r.51                  1998.53      -997.922               
    48 r.52                     1000             2               
    49 r.53                    -1000         -1001               
    50 r.54                  2999.39      -999.329               
    51 r.55                        2             2               
    52 r.56                       -2         -1001               
    53 r.57                 -4.17235      -998.605               
    54 r.58                     1001             2               
    55 r.59                    -1001         -1001               
    56 r.60                  2999.39      -998.549               
    57 r.61                     1001             2               
    58 r.62                    -1001         -1001               
    59 r.63                  1998.53      -997.712               
    60 r.64                  -997.94       -997.94               
    61 r.65                 -994.376      -996.398               
    62 r.66                  -997.94       -997.94               
    63 r.67                 -994.376      -996.398               
    64 r.68                     1001             2               
    65 r.69                    -1001         -1001               
    66 r.70                  3003.56      -998.533               
    67 r.71                     1001             2               
    68 r.72                    -1001         -1001               
    69 r.73                     2000      -997.697               
    70 r.74                     1001             2               
    71 r.75                    -1001         -1001               
    72 r.76                  997.904       2.06022               
    73 r.77                     1001             2               
    74 r.78                    -1001         -1001               
    75 r.79                  3002.66        3.6023               
    76 r.80                        2             2               
    77 r.81                       -2         -1001               
    78 r.82                 -1.39929      -998.694               
    79 r.83                     1000             2               
    80 r.84                    -1000         -1001               
    81 r.85                  3001.19      -997.922               
    82 r.86                     1001             2               
    83 r.87                    -1001         -1001               
    84 r.88                  1997.29      -999.329               
    85 r.89                     1001             2               
    86 r.90                    -1001         -1001               
    87 r.91                  2998.49      -998.605               
    88 r.92                        2             2               
    89 r.93                       -2         -1001               
    90 r.94                 -2.70504      -998.549               
    91 r.95                     1000             2               
    92 r.96                    -1000         -1001               
    93 r.97                  3001.19      -997.712               
    94 r.98                 -995.844      -998.601               
    95 r.99                 -997.038      -997.038               
    96 r.100                -995.844      -998.601               
    97 r.101                -997.038      -997.038               
    98 r.102                -998.533      -998.533               
    99 r.103                 1.46731      -997.697               
   100 r.104                 2.66162      -998.533               
   101 r.105                 1002.66      -997.697               
   102 r.106                    1001             2               
   103 r.107                   -1001         -1001               
   104 r.108                 999.303       2.06022               
   105 r.109                    1001             2               
   106 r.110                   -1001         -1001               
   107 r.111                 2001.47        3.6023               
   108 r.112                       2             2               
   109 r.113                      -2         -1001               
   110 r.114                 1.39929       1.39929               
   111 r.115                    1000             2               
   112 r.116                   -1000         -1001               
   113 r.117                 998.806       2.96204               
   114 r.118                -998.694      -998.694               
   115 r.119                 2.70504      -997.922               
   116 r.120                -998.694      -998.694               
   117 r.121                 2.70504      -997.922               
   118 r.122                       2             2               
   119 r.123                      -2         -1001               
   120 r.124                -1.30575      -998.549               
   121 r.125                    1000             2               
   122 r.126                   -1000         -1001               
   123 r.127                    2000      -997.712               
   124 r.128                -997.243      -998.694               
   125 r.129                 4.15634      -997.922               
   126 r.130                -997.243      -998.694               
   127 r.131                 4.15634      -997.922               
   128 r.132                -997.133      -998.533               
   129 r.133                  2.8666      -997.697               
   130 r.134                -998.533      -998.533               
   131 r.135                 1.46731      -997.697               
   132 r.136                    1000             2               
   133 r.137                   -1000         -1001               
   134 r.138                 1000.61       2.06022               
   135 r.139                       2             2               
   136 r.140                      -2         -1001               
   137 r.141                 4.17235        3.6023               
   138 r.142                    1001             2               
   139 r.143                   -1001         -1001               
   140 r.144                 2002.71       1.39929               
   141 r.145                    1001             2               
   142 r.146                   -1001         -1001               
   143 r.147                 1001.51       2.96204               
   144 r.148                    1001             2               
   145 r.149                   -1001         -1001               
   146 r.150                    2000      -998.549               
   147 r.151                    1001             2               
   148 r.152                   -1001         -1001               
   149 r.153                 2002.71      -997.712               
   150 r.154                 1.45131      -999.329               
   151 r.155                -998.549      -998.605               
   152 r.156                 1.45131      -999.329               
   153 r.157                -998.549      -998.605               
   154 r.158                -995.828      -998.533               
   155 r.159                 4.17235      -997.697               
   156 r.160                -995.828      -998.533               
   157 r.161                 4.17235      -997.697               
   158 r.162                    1001             2               
   159 r.163                   -1001         -1001               
   160 r.164                 1000.61       2.06022               
   161 r.165                    1001             2               
   162 r.166                   -1001         -1001               
   163 r.167                 2001.47        3.6023               
   164 r.168                       2             2               
   165 r.169                      -2         -1001               
   166 r.170                 2.70504       1.39929               
   167 r.171                    1000             2               
   168 r.172                   -1000         -1001               
   169 r.173                 998.806       2.96204               
   170 r.174                       2             2               
   171 r.175                      -2         -1001               
   172 r.176                 1.30575       1.30575               
   173 r.177                    1000             2               
   174 r.178                   -1000         -1001               
   175 r.179                    2000       2.07791               
   176 r.180                    1001             2               
   177 r.181                   -1001         -1001               
   178 r.182                    2000      0.671139               
   179 r.183                    1001             2               
   180 r.184                   -1001         -1001               
   181 r.185                 1997.29       1.39476               
   182 r.186                -998.549      -998.549               
   183 r.187                 4.15634      -997.712               
   184 r.188                -998.549      -998.549               
   185 r.189                 4.15634      -997.712               
   186 r.190                -995.828      -998.533               
   187 r.191                 4.17235      -997.697               
   188 r.192                -998.533      -998.533               
   189 r.193                 1.46731      -997.697               
   190 r.194                    1001             2               
   191 r.195                   -1001         -1001               
   192 r.196                 996.437       2.06022               
   193 r.197                    1001             2               
   194 r.198                   -1001         -1001               
   195 r.199                    2000        3.6023               

   No. Column name       Activity     Lower bound   Upper bound
------ ------------    ------------- ------------- -------------
     1 tt                    6.08343             0               
     2 s_1_1        *              0             0             1 
     3 t_1_1                 1003.56             0               
     4 s_2_1        *              1             0             1 
     5 t_2_1                       0             0               
     6 s_1_2        *              1             0             1 
     7 t_1_2                 1.46731             0               
     8 s_1_7        *              1             0             1 
     9 s_2_2        *              0             0             1 
    10 t_2_2                 1002.66             0               
    11 s_2_7        *              0             0             1 
    12 s_1_3        *              1             0             1 
    13 t_1_3                  2.8666             0               
    14 s_2_3        *              0             0             1 
    15 t_2_3                 1.46731             0               
    16 s_1_4        *              0             0             1 
    17 t_1_4                 4.17235             0               
    18 s_2_4        *              1             0             1 
    19 t_2_4                 4.17235             0               
    20 s_1_5        *              1             0             1 
    21 t_1_5                 4.17235             0               
    22 s_2_5        *              0             0             1 
    23 t_2_5                 1.46731             0               
    24 s_1_6        *              1             0             1 
    25 t_1_6                 5.62366             0               
    26 s_2_6        *              0             0             1 
    27 t_2_6                 5.62366             0               
    28 t_1_7                       0             0               
    29 t_2_7                       0             0               
    30 r_1_1_2      *              1             0             1 
    31 u_1_1_2      *              0             0             1 
    32 r_2_1_2      *              1             0             1 
    33 u_2_1_2      *              0             0             1 
    34 r_1_1_3      *              1             0             1 
    35 u_1_1_3      *              0             0             1 
    36 r_2_1_3      *              1             0             1 
    37 u_2_1_3      *              0             0             1 
    38 r_1_1_4      *              1             0             1 
    39 u_1_1_4      *              0             0             1 
    40 r_2_1_4      *              0             0             1 
    41 u_2_1_4      *              0             0             1 
    42 r_1_1_5      *              1             0             1 
    43 u_1_1_5      *              0             0             1 
    44 r_2_1_5      *              1             0             1 
    45 u_2_1_5      *              0             0             1 
    46 r_1_1_7      *              1             0             1 
    47 u_1_1_7      *              0             0             1 
    48 r_2_1_7      *              1             0             1 
    49 u_2_1_7      *              0             0             1 
    50 r_1_2_3      *              0             0             1 
    51 u_1_2_3      *              0             0             1 
    52 r_2_2_3      *              1             0             1 
    53 u_2_2_3      *              0             0             1 
    54 r_1_2_4      *              1             0             1 
    55 u_1_2_4      *              0             0             1 
    56 r_2_2_4      *              1             0             1 
    57 u_2_2_4      *              0             0             1 
    58 r_1_2_5      *              0             0             1 
    59 u_1_2_5      *              0             0             1 
    60 r_2_2_5      *              1             0             1 
    61 u_2_2_5      *              0             0             1 
    62 r_1_3_5      *              0             0             1 
    63 u_1_3_5      *              0             0             1 
    64 r_2_3_5      *              1             0             1 
    65 u_2_3_5      *              0             0             1 
    66 r_1_4_5      *              1             0             1 
    67 u_1_4_5      *              0             0             1 
    68 r_2_4_5      *              1             0             1 
    69 u_2_4_5      *              0             0             1 

Integer feasibility conditions:

KKT.PE: max.abs.err = 4.55e-13 on row 50
        max.rel.err = 7.57e-17 on row 50
        High quality

KKT.PB: max.abs.err = 4.62e-14 on row 110
        max.rel.err = 1.92e-14 on row 110
        High quality

End of output
